GPU_version/outputs/rc205.out
Total number of lines in the file: 110
Total number of nodes including depot: 101
Customer 1: (40, 50), Demand: 0, Time Window: [0, 960], Service Time: 0
Customer 2: (25, 85), Demand: 20, Time Window: [431, 911], Service Time: 10
Customer 3: (22, 75), Demand: 30, Time Window: [30, 510], Service Time: 10
Customer 4: (22, 85), Demand: 10, Time Window: [291, 771], Service Time: 10
Customer 5: (20, 80), Demand: 40, Time Window: [674, 734], Service Time: 10
calling MST kernel
Post Processing Route
Post 2 opt Processing Route
2-opt between 18 and 19 improved cost from 2354.54 to 2354.48
Elapsed time: 0.646168 seconds
Final Route: 
Route #1: 90 
Route #2: 69 98 53 
Route #3: 88 60 
Route #4: 78 12 
Route #5: 14 47 17 
Route #6: 15 16 11 10 
Route #7: 9 13 
Route #8: 73 79 7 8 46 4 
Route #9: 45 5 3 1 6 2 55 100 70 
Route #10: 65 82 99 52 57 86 74 
Route #11: 87 59 97 58 
Route #12: 75 77 25 
Route #13: 23 21 48 18 
Route #14: 19 49 20 
Route #15: 22 24 66 
Route #16: 83 80 91 
Route #17: 92 95 62 50 34 31 
Route #18: 29 27 26 
Route #19: 28 30 32 
Route #20: 33 67 56 
Route #21: 64 84 85 51 
Route #22: 63 76 89 94 93 
Route #23: 71 96 54 
Route #24: 81 61 68 
Route #25: 72 41 
Route #26: 39 40 38 37 
Route #27: 36 35 
Route #28: 42 44 43 
Route #29: Total Distance: 2354.54
Final route is valid
