outputs/rc205.txt.out
filename: RC205
Vehicles: 25, Capacity: 1000
Total customers : 101
No of routes: 28
Route #1: 80 91
Route #2: 92 95 84 85 51
Route #3: 63 76 89 56
Route #4: 64 62 50 34 31
Route #5: 29 27 26
Route #6: 28 30 32
Route #7: 33 67 94 93
Route #8: 96 71 54
Route #9: 72 41
Route #10: 39 38 37 40
Route #11: 36 35
Route #12: 42 44 43
Route #13: 81 61 68
Route #14: 90
Route #15: 65 82 99 52 57 86 74
Route #16: 87 59 97 58
Route #17: 75 77 25
Route #18: 23 21 48 18
Route #19: 19 49 20
Route #20: 22 24 66
Route #21: 69 98 53 83
Route #22: 88 60
Route #23: 78 73 79 7 8 46 4
Route #24: 45 5 3 1 2 6 12
Route #25: 14 47 15 16 17
Route #26: 11 10
Route #27: 9 13
Route #28: 55 100 70
Cost 2307
